(set-logic QF_UF)
(declare-fun A0 () Bool)
(declare-fun A1 () Bool)
(declare-fun A2 () Bool)
(declare-fun A3 () Bool)
(declare-fun A4 () Bool)
(declare-fun A5 () Bool)
(declare-fun A7 () Bool)
(declare-fun A8 () Bool)
(declare-fun A9 () Bool)
(declare-fun A10 () Bool)
(declare-fun A11 () Bool)
(declare-fun A12 () Bool)
(declare-fun A14 () Bool)
(declare-fun A15 () Bool)
(declare-fun A16 () Bool)
(declare-fun A17 () Bool)
(declare-fun A18 () Bool)
(declare-fun A19 () Bool)
(declare-fun A20 () Bool)
(declare-fun A21 () Bool)
(declare-fun A22 () Bool)
(declare-fun A23 () Bool)
(declare-fun A24 () Bool)
(assert (let ((.def_0 (not A12))) (let ((.def_1 (not A16))) (let ((.def_2 (or .def_1 .def_0))) (let ((.def_3 (not .def_2))) (let ((.def_4 (not A9))) (let ((.def_5 (or A16 .def_4))) (let ((.def_6 (not .def_5))) (let ((.def_7 (and .def_6 .def_3))) (let ((.def_8 (not .def_7))) (let ((.def_9 (not A2))) (let ((.def_10 (or .def_9 A20))) (let ((.def_11 (or .def_0 A9))) (let ((.def_12 (= .def_11 .def_10))) (let ((.def_13 (not .def_12))) (let ((.def_14 (or .def_13 .def_8))) (let ((.def_15 (not A8))) (let ((.def_16 (or .def_15 A11))) (let ((.def_17 (not A10))) (let ((.def_18 (and A7 .def_17))) (let ((.def_19 (or .def_18 .def_16))) (let ((.def_20 (not .def_19))) (let ((.def_21 (not A24))) (let ((.def_22 (= A8 .def_21))) (let ((.def_23 (not .def_22))) (let ((.def_24 (not A22))) (let ((.def_25 (or .def_24 A16))) (let ((.def_26 (not .def_25))) (let ((.def_27 (or .def_26 .def_23))) (let ((.def_28 (not .def_27))) (let ((.def_29 (or .def_28 .def_20))) (let ((.def_30 (not .def_29))) (let ((.def_31 (or .def_30 .def_14))) (let ((.def_32 (not .def_31))) (let ((.def_33 (not A18))) (let ((.def_34 (and .def_33 A0))) (let ((.def_35 (not A3))) (let ((.def_36 (not A4))) (let ((.def_37 (or .def_36 .def_35))) (let ((.def_38 (= .def_37 .def_34))) (let ((.def_39 (not .def_38))) (let ((.def_40 (not A14))) (let ((.def_41 (or .def_40 A11))) (let ((.def_42 (not .def_41))) (let ((.def_43 (not A20))) (let ((.def_44 (and A17 .def_43))) (let ((.def_45 (not .def_44))) (let ((.def_46 (or .def_45 .def_42))) (let ((.def_47 (not .def_46))) (let ((.def_48 (or .def_47 .def_39))) (let ((.def_49 (not .def_48))) (let ((.def_50 (not A17))) (let ((.def_51 (or .def_50 A15))) (let ((.def_52 (and A2 A10))) (let ((.def_53 (not .def_52))) (let ((.def_54 (or .def_53 .def_51))) (let ((.def_55 (not A0))) (let ((.def_56 (and .def_55 A7))) (let ((.def_57 (or A21 .def_9))) (let ((.def_58 (or .def_57 .def_56))) (let ((.def_59 (not .def_58))) (let ((.def_60 (or .def_59 .def_54))) (let ((.def_61 (or .def_60 .def_49))) (let ((.def_62 (and .def_61 .def_32))) (let ((.def_63 (not .def_62))) (let ((.def_64 (and A7 A17))) (let ((.def_65 (not .def_64))) (let ((.def_66 (not A15))) (let ((.def_67 (or .def_66 .def_0))) (let ((.def_68 (not .def_67))) (let ((.def_69 (or .def_68 .def_65))) (let ((.def_70 (not A23))) (let ((.def_71 (and A0 .def_70))) (let ((.def_72 (not .def_71))) (let ((.def_73 (or A17 .def_4))) (let ((.def_74 (not .def_73))) (let ((.def_75 (and .def_74 .def_72))) (let ((.def_76 (not .def_75))) (let ((.def_77 (and .def_76 .def_69))) (let ((.def_78 (or A20 A2))) (let ((.def_79 (or A5 .def_4))) (let ((.def_80 (and .def_79 .def_78))) (let ((.def_81 (not .def_80))) (let ((.def_82 (and .def_33 .def_0))) (let ((.def_83 (not .def_82))) (let ((.def_84 (or A17 A3))) (let ((.def_85 (= .def_84 .def_83))) (let ((.def_86 (not .def_85))) (let ((.def_87 (and .def_86 .def_81))) (let ((.def_88 (and .def_87 .def_77))) (let ((.def_89 (not .def_88))) (let ((.def_90 (or A5 .def_0))) (let ((.def_91 (and A15 A14))) (let ((.def_92 (not .def_91))) (let ((.def_93 (and .def_92 .def_90))) (let ((.def_94 (not .def_93))) (let ((.def_95 (or A5 .def_24))) (let ((.def_96 (not .def_95))) (let ((.def_97 (and A2 .def_43))) (let ((.def_98 (not .def_97))) (let ((.def_99 (and .def_98 .def_96))) (let ((.def_100 (or .def_99 .def_94))) (let ((.def_101 (not .def_100))) (let ((.def_102 (not A1))) (let ((.def_103 (or .def_102 .def_50))) (let ((.def_104 (not A21))) (let ((.def_105 (and A4 .def_104))) (let ((.def_106 (not .def_105))) (let ((.def_107 (and .def_106 .def_103))) (let ((.def_108 (not .def_107))) (let ((.def_109 (or .def_104 A3))) (let ((.def_110 (not .def_109))) (let ((.def_111 (and A19 A5))) (let ((.def_112 (or .def_111 .def_110))) (let ((.def_113 (not .def_112))) (let ((.def_114 (= .def_113 .def_108))) (let ((.def_115 (not .def_114))) (let ((.def_116 (or .def_115 .def_101))) (let ((.def_117 (and .def_116 .def_89))) (let ((.def_118 (and .def_117 .def_63))) .def_118))))))))))))))))))))))))))))))))))))))))))))))))))))))))))))))))))))))))))))))))))))))))))))))))))))))))))))))))))))))))
(check-sat)
